
Gurobi 10.0.2 (win64) logging started Fri Jun 21 03:40:08 2024

Set parameter LogFile to value "log/log_difficulty1_MNL_DESKTOP-S7OVCUR_9_2.txt"
Gurobi Optimizer version 10.0.2 build v10.0.2rc0 (win64)

CPU model: Intel(R) Core(TM) i7-10510U CPU @ 1.80GHz, instruction set [SSE2|AVX|AVX2]
Thread count: 4 physical cores, 8 logical processors, using up to 8 threads

Optimize a model with 2020 rows, 676 columns and 4612 nonzeros
Model fingerprint: 0x65abbd9e
Variable types: 364 continuous, 312 integer (312 binary)
Coefficient statistics:
  Matrix range     [3e-03, 4e+02]
  Objective range  [1e+02, 6e+02]
  Bounds range     [1e+00, 1e+00]
  RHS range        [1e+00, 1e+00]
Found heuristic solution: objective -0.0000000
Presolve removed 224 rows and 104 columns
Presolve time: 0.05s
Presolved: 1796 rows, 572 columns, 4242 nonzeros
Found heuristic solution: objective 2352.4538164
Variable types: 308 continuous, 264 integer (264 binary)

Root relaxation: objective 1.579903e+04, 418 iterations, 0.02 seconds (0.00 work units)

    Nodes    |    Current Node    |     Objective Bounds      |     Work
 Expl Unexpl |  Obj  Depth IntInf | Incumbent    BestBd   Gap | It/Node Time

     0     0 15799.0279    0  152 2352.45382 15799.0279   572%     -    0s
H    0     0                    8713.4693377 15799.0279  81.3%     -    0s
H    0     0                    9408.6008189 15799.0279  67.9%     -    0s
H    0     0                    13148.567134 15799.0279  20.2%     -    0s
     0     0 14920.8141    0  195 13148.5671 14920.8141  13.5%     -    0s
     0     0 14909.1593    0  201 13148.5671 14909.1593  13.4%     -    0s
     0     0 14908.5867    0  201 13148.5671 14908.5867  13.4%     -    0s
     0     0 14908.5867    0  201 13148.5671 14908.5867  13.4%     -    0s
H    0     0                    13312.639749 14485.0948  8.81%     -    0s
     0     0 14485.0948    0  194 13312.6397 14485.0948  8.81%     -    0s
H    0     0                    13768.425500 14485.0948  5.21%     -    0s
     0     0 14459.3557    0  198 13768.4255 14459.3557  5.02%     -    0s
     0     0 14455.6878    0  200 13768.4255 14455.6878  4.99%     -    0s
H    0     0                    13816.360295 14455.3654  4.62%     -    0s
     0     0 14455.3654    0  199 13816.3603 14455.3654  4.62%     -    0s
H    0     0                    14176.795434 14455.3654  1.96%     -    0s
     0     0 14317.7057    0  180 14176.7954 14317.7057  0.99%     -    0s
     0     0 14300.5494    0  184 14176.7954 14300.5494  0.87%     -    0s
     0     0 14294.7752    0  182 14176.7954 14294.7752  0.83%     -    0s
     0     0 14293.3665    0  183 14176.7954 14293.3665  0.82%     -    0s
     0     0 14293.3499    0  183 14176.7954 14293.3499  0.82%     -    0s
H    0     0                    14213.202026 14293.3499  0.56%     -    0s
H    0     0                    14215.107961 14293.3499  0.55%     -    0s
     0     0 14269.5844    0  181 14215.1080 14269.5844  0.38%     -    0s
     0     0 14269.5471    0  180 14215.1080 14269.5471  0.38%     -    0s
     0     0 14264.4326    0  187 14215.1080 14264.4326  0.35%     -    0s
     0     0 14263.9607    0  190 14215.1080 14263.9607  0.34%     -    0s
     0     0 14241.5451    0  177 14215.1080 14241.5451  0.19%     -    0s
     0     0 14240.9888    0  185 14215.1080 14240.9888  0.18%     -    0s
     0     0 14240.9065    0  183 14215.1080 14240.9065  0.18%     -    0s
     0     0 14237.1537    0  182 14215.1080 14237.1537  0.16%     -    0s
     0     0 14236.7287    0  186 14215.1080 14236.7287  0.15%     -    0s

Cutting planes:
  Gomory: 22
  Implied bound: 29
  MIR: 61
  Flow cover: 121
  RLT: 50
  Relax-and-lift: 7
  BQP: 14

Explored 1 nodes (2453 simplex iterations) in 0.75 seconds (0.26 work units)
Thread count was 8 (of 8 available processors)

Solution count 10: 14215.1 14213.2 14176.8 ... 2352.45

Optimal solution found (tolerance 1.00e-04)
Best objective 1.421510796119e+04, best bound 1.421581291576e+04, gap 0.0050%
